
Gurobi 6.5.2 (win64) logging started 07/24/16 17:45:46


Gurobi 6.5.2 (win64) logging started 07/24/16 17:45:46

Optimize a model with 3052 rows, 287 columns and 6662 nonzeros
Coefficient statistics:
  Matrix range    [1e+00, 5e+02]
  Objective range [2e+00, 5e+02]
  Bounds range    [1e+00, 1e+00]
  RHS range       [1e+00, 2e+03]
Presolve removed 2935 rows and 25 columns
Presolve time: 0.00s
Presolved: 117 rows, 262 columns, 1294 nonzeros
Variable types: 0 continuous, 262 integer (262 binary)

Root relaxation: objective 1.799000e+03, 210 iterations, 0.00 seconds

    Nodes    |    Current Node    |     Objective Bounds      |     Work
 Expl Unexpl |  Obj  Depth IntInf | Incumbent    BestBd   Gap | It/Node Time

*    0     0               0    1799.0000000 1799.00000  0.00%     -    0s

Explored 0 nodes (210 simplex iterations) in 0.00 seconds
Thread count was 8 (of 8 available processors)

Optimal solution found (tolerance 1.00e-04)
Best objective 1.799000000000e+03, best bound 1.799000000000e+03, gap 0.0%

Wrote requested result file 'H1\instance26\\Results26SG_Sol4.lp'

